# Objective value = 35
WA1n 0
WA1p 0
WA2n 0
WA2p 1
WB1n 0
WB1p 0
WB2n 0
WB2p 1
WC1n 0
WC1p 1
WD1n 0
WD1p 1
WD2n 0
WD2p 1
WE1n 2
WE1p 0
WE2n 1
WE2p 0
WF1n 0
WF1p 4
WG1n 0
WG1p 4
WH1n 10
WH1p 0
WH2n 1
WH2p 0
WT1n 0
WT1p 1
WT2n 0
WT2p 1
5 7
a 0
b 1
c 0
d 1
e 1
f 1
g 1
h 0
i 0
j 1
k 1
l 0
m 0
n 1
o 1
